c clasp version 2.1.4
c Reading from ...arks/24_Nodes/PBencd_EuclideanCost.opb
c Solving...
o 888
o 886
o 881
o 867
o 858
o 857
o 851
o 840
o 833
o 817
o 816
o 813
o 805
o 791
o 784
o 772
o 761
o 745
o 736
o 733
o 730
o 725
o 721
o 713
o 697
o 695
o 685
o 684
o 663
o 643
o 636
o 629
o 623
o 615
o 608
o 604
o 599
o 557
o 549
o 548
o 545
o 540
o 535
o 523
o 522
o 520
o 512
o 505
o 500
o 496
o 489
o 482
o 465
o 457
o 452
o 444
o 432
o 431
o 415
o 405
o 396
o 395
o 394
o 393
o 391
o 390
o 386
o 383
o 382
o 380
o 375
o 373
o 364
o 362
o 357
o 354
o 352
o 350
o 329
o 328
o 327
o 326
o 301
